p cnf 54 186
3 1 0
3 2 0
-1 -2 -3 0
4 5 -6 0
-4 -5 -6 0
4 -5 6 0
-4 5 6 0
7 2 0
7 -6 0
-2 6 -7 0
-7 -4 -8 0
7 4 -8 0
-7 4 8 0
7 -4 8 0
-9 -7 0
-9 8 0
7 -8 9 0
10 4 0
10 -2 0
-4 2 -10 0
-12 10 0
-12 -11 0
-10 11 12 0
13 -12 0
13 -12 0
12 -13 0
-14 9 0
-14 13 0
-9 -13 14 0
15 2 -16 0
-15 -2 -16 0
15 -2 16 0
-15 2 16 0
-17 14 0
-17 16 0
-14 -16 17 0
-1 -18 -19 0
1 18 -19 0
-1 18 19 0
1 -18 19 0
-17 -19 -20 0
17 19 -20 0
-17 19 20 0
17 -19 20 0
-21 8 0
-21 -6 0
-8 6 21 0
-22 -4 0
-22 15 0
4 -15 22 0
-23 21 0
-23 22 0
-21 -22 23 0
-24 20 0
-24 23 0
-20 -23 24 0
-26 25 0
-26 -10 0
-25 10 26 0
25 -10 -27 0
-25 10 -27 0
25 10 27 0
-25 -10 27 0
28 7 0
28 -27 0
-7 27 -28 0
-29 -26 0
-29 28 0
26 -28 29 0
-6 -30 -31 0
6 30 -31 0
-6 30 31 0
6 -30 31 0
-32 18 0
-32 4 0
-18 -4 32 0
-33 -32 0
-33 15 0
32 -15 33 0
-34 31 0
-34 33 0
-31 -33 34 0
-35 -29 0
-35 34 0
29 -34 35 0
36 24 0
36 35 0
-24 -35 -36 0
37 -3 0
37 36 0
3 -36 -37 0
-38 1 0
-38 22 0
-1 -22 38 0
39 -38 0
39 12 0
38 -12 -39 0
15 -25 -40 0
-15 25 -40 0
15 25 40 0
-15 -25 40 0
-42 1 0
-42 -6 0
-1 6 42 0
43 -41 0
43 42 0
41 -42 -43 0
-44 -40 0
-44 43 0
40 -43 44 0
39 44 -45 0
-39 -44 -45 0
39 -44 45 0
-39 44 45 0
-46 12 0
-46 -10 0
-12 10 46 0
-47 45 0
-47 -46 0
-45 46 47 0
48 22 0
48 5 0
-22 -5 -48 0
49 8 0
49 22 0
-8 -22 -49 0
50 -48 0
50 49 0
48 -49 -50 0
-47 -50 -51 0
47 50 -51 0
-47 50 51 0
47 -50 51 0
52 6 0
52 32 0
-6 -32 -52 0
-53 51 0
-53 -52 0
-51 52 53 0
54 37 0
54 53 0
-37 -53 -54 0
33 36 52 3 23 49 0
35 -18 -27 0
-49 10 -36 17 -7 0
42 6 -23 36 29 0
32 -4 -21 -35 0
4 -20 33 -12 51 11 0
-46 32 30 0
-15 36 -52 -12 50 0
46 -31 50 26 -44 0
-53 -29 0
-2 46 -16 0
-35 -34 2 0
-47 8 -19 0
-1 35 -38 0
46 -22 10 40 0
-43 -2 32 0
-39 43 49 0
-46 3 0
2 -36 14 -26 23 -30 0
10 -43 0
-26 8 -30 39 0
-38 6 -47 -19 25 0
41 -46 -29 14 21 0
-36 -31 -27 0
18 -30 -37 6 -8 0
3 -49 -26 -5 -9 0
1 46 29 4 -53 0
18 8 -47 54 -48 0
-33 49 -5 -2 34 0
16 -19 37 0
9 -47 35 0
-52 43 -19 -3 24 0
-27 15 -35 -17 0
21 -45 18 0
22 -26 0
52 -53 -51 -1 -48 0
-9 12 0
-37 21 41 30 -10 0
37 -31 0
-49 45 0
10 -7 47 21 0
4 27 0
-27 14 47 36 0
54 0
